7
1 7.9 0 0
2 8.5 10.0 20.0
3 6.1 120.0 150.0
4 4.0 120.0 150.0
5 2.4 120.0 150.0
6 5.2 60.0 80.0
7 2.4 90.0 130.0
1 2 11.3
1 3 43.0
1 4 44.1
1 5 49.3
1 6 50.8
1 7 60.1
2 1 11.3
2 3 42.2
2 4 45.0
2 5 51.5
2 6 47.5
2 7 57.9
3 1 43.0
3 2 42.2
3 4 6.5
3 5 14.6
3 6 12.2
3 7 17.7
4 1 44.1
4 2 45.0
4 3 6.5
4 5 8.3
4 6 17.7
4 7 20.1
5 1 49.3
5 2 51.5
5 3 14.6
5 4 8.3
5 6 24.2
5 7 23.0
6 1 50.8
6 2 47.5
6 3 12.2
6 4 17.7
6 5 24.2
6 7 11.2 
7 1 60.1
7 2 57.9
7 3 17.7
7 4 20.1
7 5 23.0
7 6 11.2
